50
25959

918 337
769 432
444 941
943 894
19 708
735 353
175 625
679 143
118 148
995 191
993 480
899 164
532 14
162 372
119 237
67 788
955 630
278 736
265 205
807 160
830 773
501 585
222 545
527 383
389 922
754 928
579 877
740 291
995 155
140 515
949 88
784 682
914 853
677 403
892 853
526 241
396 654
239 553
789 288
529 20
717 217
934 288
781 520
263 806
138 885
664 666
673 579
305 532
105 316
732 664
